Route #1: 5 12 58
Route #2: 93 75
Route #3: 20 41 22 15
Route #4: 80 94 56 21
Route #5: 38 47 26 48 96 64 34
Route #6: 32 33 53 73 95 24
Route #7: 1 70 54
Route #8: 68 90 84 66
Route #9: 69 16 55 76
Route #10: 17 8
Route #11: 40 67 88 44
Route #12: 31 46 35
Route #13: 28 42 78 65 25
Route #14: 14 49 6 37 87
Route #15: 30 85 11 79
Route #16: 4 13 74
Route #17: 7 2 45 43 29 36 72 57
Route #18: 23 61 100
Route #19: 71 62 99 98 89
Route #20: 92 9 86
Route #21: 82 60 59
Route #22: 52 91 50
Route #23: 18 10 39
Route #24: 3 77 63
Route #25: 83 51 81
Route #26: 19 97 27
Cost 27591.0000
Time 16.0007